n = 27;
lu = [|-704, 232
      |-499, 75
      |-441, 671
      |-641, -445
      |-499, 367
      |-255, 728
      |-444, -428
      |-662, 627
      |-605, -450
      |-256, 368
      |187, 348
      |-310, 115
      |-539, 485
      |-688, -488
      |-30, 96
      |-323, -308
      |-53, 73
      |18, 493
      |-299, -225
      |-285, 123
      |468, 628
      |-607, 392
      |-624, -361
      |-454, -1
      |-427, -312
      |-667, 41
      |-553, 358|];
